
  12    4
  10   10   10   10

   0   0   0   0   0   5 2 3 4 5 6 
   3  10  10  10  10   4 11 9 8 7 
   3  10  10  10  10   4 10 9 8 7 
  10  10  10  10  10   2 9 8 
   3  10  10  10  10   2 8 7 
   8  10  10  10  10   1 7 
   3  10  10  10  10   1 12
   7  10  10  10  10   1 12
   2  10  10  10  10   1 12
   4  10  10  10  10   1 12
   8  10  10  10  10   1 12
   0   0   0   0   0   0 
